10J3M/DAT/10J3MUTX-18.dat
10 3
17.875 4.2279
44.0524 6.6372
5.0696 2.2516
3.3443 1.8287
25.7275 5.0722
29.7372 5.4532
30.4357 5.5169
6.676 2.5838
15.2595 3.9063
42.0626 6.4856
10.9909