10J3M/SOL/10J3MUTX-18.sol
solution status: optimal solution found
objective value:                     62.7044757964947
x#1#2                               0.147610607841917 	(obj:0)
x#1#3                               0.752978337024329 	(obj:0)
x#2#1                               0.307705419039551 	(obj:0)
x#2#3                               0.692294580960449 	(obj:0)
x#5#2                                               1 	(obj:0)
x#6#1                               0.629299785951495 	(obj:0)
x#6#3                               0.370700214048505 	(obj:0)
x#7#1                                               1 	(obj:0)
x#10#2                              0.816365041184341 	(obj:0)
x#10#3                              0.183634958815659 	(obj:0)
z                                    62.7044757964947 	(obj:1)
